(set-option :timeout 30000)

(declare-fun list_member (Int Int) Bool)
(declare-fun list_head (Int Int) Bool)

(declare-const s1 Int)
(declare-const s2 Int)
(declare-const nu_top Int)
(declare-const nu_tail Int)
(declare-const nu_concat Int)
(declare-const nu Int)
(declare-const u0 Int)

(assert
 (let ((a!1 (forall ((u_0 Int))
                    (=> (>= u_0 0)
                       (=> (not (list_member s1 u_0)) (not (list_head s1 u_0)))))
            )
       (a!2 (forall ((u_0 Int))
                    (=> (>= u_0 0)
                       (and (list_member s1 nu_top)
                            (list_head s1 nu_top)
                            (=> (list_head s1 u_0) (= u_0 nu_top)))))
            )
       (a!3 (forall ((u_0 Int))
                    (=> (>= u_0 0)
                       (let ((a!1 (=> (not (list_member nu_tail u_0))
                                     (and (list_head s1 u_0)
                                          (not (list_head nu_tail u_0)))))
                             (a!3 (=> (not (list_member s1 u_0))
                                     (and (not (list_head s1 u_0))
                                          (not (list_member nu_tail u_0))
                                          (not (list_head nu_tail u_0))))))
                         (let ((a!2 (and (=> (and (list_member nu_tail u_0)
                                                 (list_head s1 u_0))
                                            (not (list_head nu_tail u_0)))
                                         a!1)))
                           (and (=> (list_member s1 u_0) a!2) a!3)))
                       )
                    )
            )
       (a!4 (forall ((u_0 Int))
                    (=> (>= u_0 0)
                       (let ((a!1 (=> (not (list_member nu_tail u_0))
                                     (and (list_member s2 u_0)
                                          (not (list_head nu_tail u_0)))))
                             (a!3 (=> (not (list_member nu_concat u_0))
                                     (and (not (list_head s2 u_0))
                                          (not (list_member nu_tail u_0))
                                          (not (list_head nu_concat u_0))
                                          (not (list_member s2 u_0))))))
                         (let ((a!2 (and (=> (and (list_member nu_tail u_0)
                                                 (list_head nu_concat u_0))
                                            (list_head nu_tail u_0))
                                         a!1)))
                           (and (=> (list_member nu_concat u_0) a!2) a!3)))
                       )

                    ))
       (a!5 (forall ((u Int))
                    (=> (>= u 0)
                       (and (= (list_member nu u)
                               (or (list_member s1 u) (list_member s2 u)))
                            (=> (list_head nu u) (or (list_head s1 u) (list_head s2 u))))
                       )
                    )))
   (let ((a!6 (=> (and a!1
                      a!2
                      a!3
                      a!4
                      (forall ((u_0 Int))
                              (=> (>= u_0 0)
                                 (let ((a!1 (=> (list_head nu_concat u_0)
                                               (and (list_head nu nu_top)
                                                    (=> (list_member nu_concat u_0)
                                                       (= u_0 nu_top)))))
                                       (a!2 (=> (not (list_member nu_concat u_0))
                                               (and (not (list_head nu nu_top))
                                                    (not (list_member nu_concat nu_top))
                                                    (not (list_member nu nu_top))))))
                                   (let ((a!3 (=> (not (list_head nu_concat u_0))
                                                 (and (list_head nu u_0)
                                                      (=> (list_member nu_concat u_0)
                                                         (= u_0 nu_top))
                                                      a!2))))
                                     (and a!1 a!3)))))
                      )
                 a!5)))
     (not a!6)))

 )
(check-sat)
